words_hard_train/6632.qaiger
aag 93 16 0 1 77
2
4
12
14
18
22
26
30
40
48
52
62
78
100
116
132
186
6 2 5
8 3 4
10 7 9
16 13 15
20 16 19
24 21 22
28 24 26
32 28 30
34 11 32
36 10 33
38 35 37
42 41 13
44 40 12
46 43 45
50 46 48
54 50 53
56 55 45
58 12 14
60 59 17
64 61 63
66 60 62
68 65 67
70 57 68
72 71 67
74 17 18
76 75 21
80 77 79
82 76 78
84 81 83
86 73 84
88 87 83
90 20 23
92 90 52
94 90 53
96 95 25
98 93 96
102 98 101
104 99 100
106 103 105
108 89 106
110 109 105
112 25 27
114 113 29
118 114 117
120 115 116
122 119 121
124 111 122
126 125 121
128 29 31
130 129 33
134 130 133
136 131 132
138 135 137
140 127 138
142 141 137
144 38 143
146 39 142
148 145 147
150 88 107
152 151 109
154 56 69
156 155 71
158 47 52
160 158 49
162 161 55
164 157 163
166 72 85
168 167 87
170 164 169
172 152 171
174 110 123
176 175 125
178 173 177
180 126 139
182 181 141
184 178 183
186 149 185
i0 2 y2[7]
i1 1 x1[7]
i2 1 x1[1]
i3 1 x1[2]
i4 1 x1[3]
i5 1 x1[4]
i6 1 x1[5]
i7 1 x1[6]
i8 2 y2[1]
i9 2 y2[0]
i10 1 x1[0]
i11 2 y2[2]
i12 2 y2[3]
i13 2 y2[4]
i14 2 y2[5]
i15 2 y2[6]
o0 bv[0]
c
simplified
  <
    << 4
      1
    add
      2 y2
      subtract
        -143
        1 x1
