words_hard_train/6632.qaiger.qdimacs
p cnf 93 232
a 2 6 7 9 11 13 15 26 0
e 1 3 4 5 8 10 12 14 16 17 18 19 20 21 22 23 24 25 27 28 29 30 31 32 33 34 35 36 37 38 39 40 41 42 43 44 45 46 47 48 49 50 51 52 53 54 55 56 57 58 59 60 61 62 63 64 65 66 67 68 69 70 71 72 73 74 75 76 77 78 79 80 81 82 83 84 85 86 87 88 89 90 91 92 93 0
-1 2 3 0
1 -3 0
-2 -3 0
1 -2 4 0
-1 -4 0
2 -4 0
3 4 5 0
-3 -5 0
-4 -5 0
6 7 8 0
-6 -8 0
-7 -8 0
-8 9 10 0
8 -10 0
-9 -10 0
10 -11 12 0
-10 -12 0
11 -12 0
-12 -13 14 0
12 -14 0
13 -14 0
-14 -15 16 0
14 -16 0
15 -16 0
5 -16 17 0
-5 -17 0
16 -17 0
-5 16 18 0
5 -18 0
-16 -18 0
17 18 19 0
-17 -19 0
-18 -19 0
20 6 21 0
-20 -21 0
-6 -21 0
-20 -6 22 0
20 -22 0
6 -22 0
21 22 23 0
-21 -23 0
-22 -23 0
-23 -24 25 0
23 -25 0
24 -25 0
-25 26 27 0
25 -27 0
-26 -27 0
27 22 28 0
-27 -28 0
-22 -28 0
-6 -7 29 0
6 -29 0
7 -29 0
29 8 30 0
-29 -30 0
-8 -30 0
30 31 32 0
-30 -32 0
-31 -32 0
-30 -31 33 0
30 -33 0
31 -33 0
32 33 34 0
-32 -34 0
-33 -34 0
28 -34 35 0
-28 -35 0
34 -35 0
35 33 36 0
-35 -36 0
-33 -36 0
8 -9 37 0
-8 -37 0
9 -37 0
37 10 38 0
-37 -38 0
-10 -38 0
38 39 40 0
-38 -40 0
-39 -40 0
-38 -39 41 0
38 -41 0
39 -41 0
40 41 42 0
-40 -42 0
-41 -42 0
36 -42 43 0
-36 -43 0
42 -43 0
43 41 44 0
-43 -44 0
-41 -44 0
-10 11 45 0
10 -45 0
-11 -45 0
-45 -26 46 0
45 -46 0
26 -46 0
-45 26 47 0
45 -47 0
-26 -47 0
47 12 48 0
-47 -48 0
-12 -48 0
46 -48 49 0
-46 -49 0
48 -49 0
-49 50 51 0
49 -51 0
-50 -51 0
49 -50 52 0
-49 -52 0
50 -52 0
51 52 53 0
-51 -53 0
-52 -53 0
44 -53 54 0
-44 -54 0
53 -54 0
54 52 55 0
-54 -55 0
-52 -55 0
12 13 56 0
-12 -56 0
-13 -56 0
56 14 57 0
-56 -57 0
-14 -57 0
-57 58 59 0
57 -59 0
-58 -59 0
57 -58 60 0
-57 -60 0
58 -60 0
59 60 61 0
-59 -61 0
-60 -61 0
55 -61 62 0
-55 -62 0
61 -62 0
62 60 63 0
-62 -63 0
-60 -63 0
14 15 64 0
-14 -64 0
-15 -64 0
64 16 65 0
-64 -65 0
-16 -65 0
-65 66 67 0
65 -67 0
-66 -67 0
65 -66 68 0
-65 -68 0
66 -68 0
67 68 69 0
-67 -69 0
-68 -69 0
63 -69 70 0
-63 -70 0
69 -70 0
70 68 71 0
-70 -71 0
-68 -71 0
-19 71 72 0
19 -72 0
-71 -72 0
19 -71 73 0
-19 -73 0
71 -73 0
72 73 74 0
-72 -74 0
-73 -74 0
-44 53 75 0
44 -75 0
-53 -75 0
75 54 76 0
-75 -76 0
-54 -76 0
-28 34 77 0
28 -77 0
-34 -77 0
77 35 78 0
-77 -78 0
-35 -78 0
23 -26 79 0
-23 -79 0
26 -79 0
-79 24 80 0
79 -80 0
-24 -80 0
80 27 81 0
-80 -81 0
-27 -81 0
78 81 82 0
-78 -82 0
-81 -82 0
-36 42 83 0
36 -83 0
-42 -83 0
83 43 84 0
-83 -84 0
-43 -84 0
-82 84 85 0
82 -85 0
-84 -85 0
-76 85 86 0
76 -86 0
-85 -86 0
-55 61 87 0
55 -87 0
-61 -87 0
87 62 88 0
-87 -88 0
-62 -88 0
86 88 89 0
-86 -89 0
-88 -89 0
-63 69 90 0
63 -90 0
-69 -90 0
90 70 91 0
-90 -91 0
-70 -91 0
-89 91 92 0
89 -92 0
-91 -92 0
74 92 93 0
-74 -93 0
-92 -93 0
93 0
